nP = 3;
nT = 11;
nC1 = 10;
nC2 = 26;
nA = 76;
nD = 3;

arc_from = [3, 2, 1, 1, 2, 1, 1, 2, 2, 3, 2, 2, 2, 1, 1, 2, 4, 4, 5, 6, 6, 6, 7, 7, 8, 8, 9, 9, 9, 10, 10, 11, 11, 11, 12, 12, 12, 13, 14, 17, 17, 23, 19, 17, 16, 15, 17, 15, 20, 18, 24, 20, 15, 17, 19, 15, 17, 21, 23, 16, 16, 22, 22, 20, 23, 15, 16, 17, 18, 18, 19, 20, 21, 22, 22, 24];
arc_to = [4, 4, 5, 6, 7, 7, 8, 9, 10, 10, 11, 12, 13, 13, 14, 14, 18, 20, 20, 20, 15, 21, 18, 16, 16, 18, 24, 15, 23, 18, 17, 18, 16, 24, 18, 24, 20, 24, 19, 25, 26, 27, 28, 29, 30, 31, 32, 33, 34, 35, 36, 37, 38, 39, 40, 41, 42, 43, 44, 45, 46, 47, 48, 49, 50, 39, 44, 48, 39, 45, 26, 38, 40, 27, 35, 33];

supply = [485.42, 485.42, 485.42, 0.00, 0.00, 0.00, 0.00, 0.00, 0.00, 0.00, 0.00, 0.00, 0.00, 0.00, 0.00, 0.00, 0.00, 0.00, 0.00, 0.00, 0.00, 0.00, 0.00, 0.00, 0.00, 0.00, 0.00, 0.00, 0.00, 0.00, 0.00, 0.00, 0.00, 0.00, 0.00, 0.00, 0.00, 0.00, 0.00, 0.00, 0.00, 0.00, 0.00, 0.00, 0.00, 0.00, 0.00, 0.00, 0.00, 0.00];
demand = [0.00, 0.00, 0.00, 0.00, 0.00, 0.00, 0.00, 0.00, 0.00, 0.00, 0.00, 0.00, 0.00, 0.00, 46.13, 44.81, 35.73, 44.72, 39.29, 44.43, 43.48, 37.03, 33.49, 46.91, 30.76, 29.66, 28.25, 30.90, 30.77, 29.09, 24.53, 28.94, 20.89, 26.31, 25.46, 27.72, 27.71, 26.80, 29.27, 30.49, 21.86, 23.17, 21.00, 29.91, 26.56, 30.23, 23.04, 21.40, 29.29, 30.17];

max_capacity = [795, 1414, 3181];

install_cost = array2d(1..nA, 1..nD, [
  20, 24, 32,
  50, 62, 78,
  20, 24, 32,
  50, 62, 78,
  20, 24, 32,
  50, 62, 78,
  20, 24, 32,
  50, 62, 78,
  20, 24, 32,
  50, 62, 78,
  20, 24, 32,
  50, 62, 78,
  20, 24, 32,
  50, 62, 78,
  20, 24, 32,
  50, 62, 78,
  20, 24, 32,
  50, 62, 78,
  20, 24, 32,
  50, 62, 78,
  20, 24, 32,
  50, 62, 78,
  20, 24, 32,
  50, 62, 78,
  20, 24, 32,
  50, 62, 78,
  20, 24, 32,
  50, 62, 78,
  20, 24, 32,
  50, 62, 78,
  20, 24, 32,
  50, 62, 78,
  20, 24, 32,
  50, 62, 78,
  20, 24, 32,
  50, 62, 78,
  20, 24, 32,
  50, 62, 78,
  20, 24, 32,
  50, 62, 78,
  20, 24, 32,
  50, 62, 78,
  20, 24, 32,
  50, 62, 78,
  20, 24, 32,
  50, 62, 78,
  20, 24, 32,
  50, 62, 78,
  20, 24, 32,
  50, 62, 78,
  20, 24, 32,
  50, 62, 78,
  20, 24, 32,
  50, 62, 78,
  20, 24, 32,
  50, 62, 78,
  20, 24, 32,
  50, 62, 78,
  20, 24, 32,
  50, 62, 78,
  20, 24, 32,
  50, 62, 78,
  20, 24, 32,
  50, 62, 78,
  20, 24, 32,
  50, 62, 78,
  20, 24, 32,
  50, 62, 78,
  20, 24, 32,
  50, 62, 78,
  20, 24, 32,
  50, 62, 78,
  20, 24, 32,
  50, 62, 78,
  20, 24, 32,
  50, 62, 78
]);

trans_cost = [6.56, 5.09, 6.13, 5.77, 7.75, 6.38, 6.51, 5.38, 5.27, 5.35, 6.59, 5.37, 6.43, 9.11, 7.31, 5.51, 7.80, 5.39, 2.94, 4.49, 3.19, 5.47, 6.03, 8.51, 6.49, 5.67, 7.24, 2.68, 6.35, 7.16, 3.78, 7.72, 6.51, 5.38, 6.95, 9.41, 6.27, 6.37, 5.31, 4.73, 7.25, 4.72, 6.11, 5.28, 6.72, 6.50, 7.56, 5.23, 5.60, 4.53, 5.33, 6.57, 7.14, 4.62, 7.30, 8.03, 6.62, 8.82, 4.84, 4.13, 3.33, 8.24, 6.98, 5.92, 6.42, 4.31, 9.67, 6.19, 6.16, 7.09, 6.72, 6.34, 4.81, 6.71, 8.82, 8.02];

% Metadata: {'tamaño': 'medianas', 'numero': 5, 'grupo': 5, 'demanda_total': 1120.2, 'suministro_total': 1456.26, 'factor_holgura': 1.3, 'num_arcos': 76, 'conectividad': {'plantas_tanques': 16, 'tanques_transbordo': 23, 'transbordo_finales': 37}}
% Total supply: 1456.26
% Total demand: 1120.20
% Balance factor: 1.30
%Finished in 1m 18s.
%=== RESULTADOS OPTIMIZACIÓN RED DE TUBERÍAS - GRUPO 5 (CP-SAT) ===
%Grupo: 5
%Fecha/Hora: 2025-06-22
%Estado: Optimizado

%--- COSTOS ---
%Costo Instalación: $180.00
%Costo Transporte:  $109814.44
%Penalización:      $993910.00
%COSTO TOTAL:       $1103904.44

%--- ESTADÍSTICAS DE RED ---
%Nodos: P=3 T=11 C1=10 C2=26 (Total: 50)
%Arcos totales: 76
%Arcos activos: 6
%Utilización: 7%

%--- FLUJOS ---
%Suministro total: 1456.26 l/min
%Demanda total: 1120.2 l/min
%Flujo enviado: 126.29 l/min
%Demanda satisfecha: 126.2900000000001 l/min
%Demanda no satisfecha: 993.91 l/min
%Eficiencia: 11.27387966434565%

%--- DIÁMETROS UTILIZADOS ---
%D75mm: 6 arcos
%D100mm: 0 arcos
%D150mm: 0 arcos